sing20211120.12
TTAA  70111 48698
99004 28848 03506 00065 28238 29002 92753 23224 33006
85489 20250 33012 70143 11047 24512 50587 04322 07510
40760 14924 06516 30972 29536 08008 25099 39945 12018
20248 53337 11021 15426 68550 09545 10660 77159 07531
88105 81157 08056
77108 08060 40864=
TTCC  70115 48698
70863 76959 06508 50062 71367 23012
88999
66385 08070 46500=
TTDD  7011/ 48698
11865 80557 22827 78159 33761 79757 44672 72762 55548 68968
66501 71167 77427 69369 88398 66171 99390 65169 11385 61770
21212 11968 08516 22915 18010 33894 20010 44827 22502 55809
02502 66757 06010 77679 07502 88677 04002 99673 24502 11610
29004 22599 03002 33593 05502 44588 03002 55584 26002 66559
23518 77517 23019 88489 24002 99488 25502 11487 24002 22484
04502 33483 06002 44469 03008 55454 01514 66417 08527 77385
08070=
